GLPSOL--GLPK LP/MIP Solver 5.0
Parameter(s) specified in the command line:
 --lp ../modeles/2_164.lp --log 2_164.log
Reading problem data from '../modeles/2_164.lp'...
337 rows, 660 columns, 2302 non-zeros
328 integer variables, all of which are binary
1005 lines were read
GLPK Integer Optimizer 5.0
337 rows, 660 columns, 2302 non-zeros
328 integer variables, all of which are binary
Preprocessing...
324 constraint coefficient(s) were reduced
337 rows, 658 columns, 2300 non-zeros
328 integer variables, all of which are binary
Scaling...
 A: min|aij| =  5.949e-04  max|aij| =  4.000e+00  ratio =  6.724e+03
GM: min|aij| =  1.104e-01  max|aij| =  9.055e+00  ratio =  8.200e+01
EQ: min|aij| =  1.220e-02  max|aij| =  1.000e+00  ratio =  8.200e+01
2N: min|aij| =  9.518e-03  max|aij| =  1.749e+00  ratio =  1.838e+02
Constructing initial basis...
Size of triangular part is 337
Solving LP relaxation...
GLPK Simplex Optimizer 5.0
337 rows, 658 columns, 2300 non-zeros
      0: obj =   4.000000000e+00 inf =   9.500e+00 (5)
     25: obj =   4.346500037e-01 inf =   0.000e+00 (0)
*   108: obj =  -1.414206247e+00 inf =   1.384e-16 (0)
OPTIMAL LP SOLUTION FOUND
Integer optimization begins...
Long-step dual simplex will be used
+   108: mip =     not found yet >=              -inf        (1; 0)
+   127: >>>>>  -1.414206247e+00 >=  -1.414206247e+00 < 0.1% (20; 0)
+   127: mip =  -1.414206247e+00 >=     tree is empty   0.0% (0; 39)
INTEGER OPTIMAL SOLUTION FOUND
Time used:   0.0 secs
Memory used: 1.0 Mb (1037800 bytes)
